p cnf 176 568
-1 143 0 
1 164 0 
-93 -30 94 0 
-93 30 96 0 
-94 -95 0 
-95 52 0 
-96 -3 94 0 
-96 3 97 0 
-97 -34 94 0 
-97 34 98 0 
-98 -46 99 0 
-98 46 101 0 
-99 -100 0 
-101 -54 99 0 
-101 54 102 0 
-102 -59 99 0 
-102 59 103 0 
-103 -63 104 0 
-103 63 106 0 
-104 -105 0 
-105 -52 0 
-106 -67 107 0 
-106 67 108 0 
-107 -70 94 0 
-107 70 99 0 
-108 -76 99 0 
-108 76 109 0 
-109 -79 99 0 
-109 79 110 0 
-110 -82 104 0 
-110 82 111 0 
-111 -85 112 0 
-111 85 94 0 
-112 -87 94 0 
-112 87 99 0 
-10 -11 20 0 
-10 11 27 0 
-113 -54 92 0 
-113 54 114 0 
-114 -59 92 0 
-114 59 115 0 
-115 -63 116 0 
-115 63 133 0 
-116 -6 117 0 
-116 6 118 0 
-117 30 118 0 
-118 3 119 0 
-119 34 120 0 
-120 -46 121 0 
-120 46 123 0 
-11 12 16 0 
-121 -122 0 
-122 -52 0 
-123 -54 121 0 
-123 54 124 0 
-124 -59 121 0 
-124 59 125 0 
-125 -63 0 
-125 63 126 0 
-126 -67 127 0 
-126 67 128 0 
-127 70 121 0 
-128 -76 121 0 
-128 76 129 0 
-12 -13 0 
-129 -79 121 0 
-129 79 130 0 
-130 -82 0 
-130 82 131 0 
-131 -85 132 0 
-132 87 121 0 
-133 -67 134 0 
-133 67 135 0 
-134 -70 5 0 
-134 70 92 0 
-135 -76 92 0 
-135 76 136 0 
-136 -79 92 0 
-136 79 137 0 
-137 -82 116 0 
-137 82 138 0 
-138 -85 139 0 
-138 85 5 0 
-13 -14 15 0 
-13 -15 14 0 
-139 -87 5 0 
-139 87 92 0 
-140 -141 0 
-143 -144 161 0 
-143 144 163 0 
-144 145 0 
-144 160 0 
-145 -6 146 0 
-145 6 147 0 
-146 30 147 0 
-147 3 148 0 
-148 34 149 0 
-149 -46 95 0 
-149 46 150 0 
-150 -54 95 0 
-150 54 151 0 
-151 -59 95 0 
-151 59 152 0 
-152 -63 0 
-152 63 153 0 
-153 -67 154 0 
-153 67 155 0 
-154 70 95 0 
-155 -76 95 0 
-155 76 156 0 
-156 -79 95 0 
-156 79 157 0 
-157 -82 0 
-157 82 158 0 
-158 -85 159 0 
-159 87 95 0 
-160 142 0 
-161 162 0 
-163 -162 0 
-164 -165 166 0 
-164 165 168 0 
-165 96 140 0 
-166 -167 161 0 
-166 167 163 0 
-167 147 0 
-167 160 0 
-168 -169 173 0 
-168 169 175 0 
-16 -17 0 
-169 99 170 0 
-170 -171 0 
-171 -142 172 0 
-171 -172 142 0 
-173 -174 161 0 
-173 174 163 0 
-174 95 0 
-174 160 0 
-175 -162 176 0 
-175 -176 162 0 
-17 -18 19 0 
-17 -19 18 0 
-1 2 140 0 
-20 -21 24 0 
-20 21 26 0 
-21 22 0 
-21 23 0 
-22 14 0 
-23 18 0 
-24 -25 0 
-25 4 0 
-26 -3 0 
-2 -3 5 0 
-2 3 90 0 
-27 -28 0 
-29 -30 0 
-29 30 32 0 
-30 -11 31 0 
-30 11 3 0 
-31 -21 0 
-32 -3 0 
-32 3 33 0 
-33 -34 0 
-33 34 45 0 
-34 35 0 
-34 43 0 
-3 -4 0 
-35 36 0 
-35 41 0 
-36 37 0 
-36 39 0 
-37 -38 0 
-39 -40 0 
-41 -42 0 
-43 -44 0 
-45 -46 50 0 
-45 46 53 0 
-46 43 0 
-46 47 0 
-47 41 0 
-47 48 0 
-48 39 0 
-48 49 0 
-49 38 0 
-50 -51 0 
-51 52 0 
-53 -54 50 0 
-53 54 58 0 
-54 43 0 
-54 55 0 
-55 41 0 
-55 56 0 
-56 37 0 
-56 57 0 
-57 40 0 
-58 -59 50 0 
-58 59 62 0 
-59 43 0 
-59 60 0 
-60 41 0 
-60 61 0 
-61 49 0 
-61 57 0 
-62 63 66 0 
-63 43 0 
-63 64 0 
-64 36 0 
-64 65 0 
-5 -6 29 0 
-5 6 32 0 
-65 42 0 
-66 -67 69 0 
-66 67 75 0 
-67 43 0 
-67 68 0 
-68 48 0 
-68 65 0 
-69 -70 0 
-69 70 50 0 
-70 71 0 
-70 73 0 
-71 72 0 
-6 7 10 0 
-73 74 0 
-75 -76 50 0 
-75 76 78 0 
-76 43 0 
-76 77 0 
-77 56 0 
-77 65 0 
-78 -79 50 0 
-78 79 81 0 
-79 43 0 
-79 80 0 
-80 61 0 
-80 65 0 
-81 82 84 0 
-82 35 0 
-82 83 0 
-7 -8 0 
-83 44 0 
-84 -85 86 0 
-84 85 0 
-85 47 0 
-85 83 0 
-86 -87 0 
-86 87 50 0 
-87 88 71 0 
-88 89 0 
-90 -34 5 0 
-90 34 91 0 
-91 -46 92 0 
-91 46 113 0 
-92 -6 93 0 
-92 6 96 0 
8 -9 0 
8 9 0 
93 -94 -96 0 
93 -30 -94 0 
93 30 -96 0 
94 95 0 
95 -52 0 
96 -94 -97 0 
96 -3 -94 0 
96 3 -97 0 
97 -94 -98 0 
97 -34 -94 0 
97 34 -98 0 
98 -99 -101 0 
98 -46 -99 0 
98 46 -101 0 
99 100 0 
100 -52 0 
52 100 0 
101 -99 -102 0 
101 -54 -99 0 
101 54 -102 0 
102 -99 -103 0 
102 -59 -99 0 
102 59 -103 0 
103 -104 -106 0 
103 -63 -104 0 
103 63 -106 0 
104 105 0 
105 52 0 
106 -107 -108 0 
106 -67 -107 0 
106 67 -108 0 
107 -94 -99 0 
107 -70 -94 0 
107 70 -99 0 
108 -99 -109 0 
108 -76 -99 0 
108 76 -109 0 
109 -99 -110 0 
109 -79 -99 0 
109 79 -110 0 
110 -104 -111 0 
110 -82 -104 0 
110 82 -111 0 
111 -112 -94 0 
111 -85 -112 0 
111 85 -94 0 
112 -94 -99 0 
112 -87 -94 0 
112 87 -99 0 
10 -11 -20 0 
10 -20 -27 0 
10 11 -27 0 
113 -54 -92 0 
113 -92 -114 0 
113 54 -114 0 
114 -59 -92 0 
114 -92 -115 0 
114 59 -115 0 
115 -116 -133 0 
115 -63 -116 0 
115 63 -133 0 
116 -117 -118 0 
116 -6 -117 0 
116 6 -118 0 
117 -118 0 
117 -30 0 
117 30 -118 0 
118 -119 0 
118 -3 0 
118 3 -119 0 
119 -120 0 
119 -34 0 
119 34 -120 0 
120 -121 -123 0 
120 -46 -121 0 
120 46 -123 0 
11 -12 0 
11 -16 0 
121 122 0 
122 52 0 
123 -121 -124 0 
123 -54 -121 0 
123 54 -124 0 
124 -121 -125 0 
124 -59 -121 0 
124 59 -125 0 
125 63 -126 0 
126 -127 -128 0 
126 -67 -127 0 
126 67 -128 0 
127 -121 0 
127 -70 0 
127 70 -121 0 
128 -121 -129 0 
128 -76 -121 0 
128 76 -129 0 
12 13 0 
129 -121 -130 0 
129 -79 -121 0 
129 79 -130 0 
130 82 -131 0 
131 -132 0 
131 -85 -132 0 
131 85 0 
132 -121 0 
132 -87 0 
132 87 -121 0 
133 -134 -135 0 
133 -67 -134 0 
133 67 -135 0 
134 -5 -92 0 
134 -70 -5 0 
134 70 -92 0 
135 -76 -92 0 
135 -92 -136 0 
135 76 -136 0 
136 -79 -92 0 
136 -92 -137 0 
136 79 -137 0 
137 -116 -138 0 
137 -82 -116 0 
137 82 -138 0 
138 -139 -5 0 
138 -85 -139 0 
138 85 -5 0 
13 -14 -15 0 
13 14 15 0 
139 -5 -92 0 
139 -87 -5 0 
139 87 -92 0 
140 141 0 
141 -142 0 
141 142 0 
143 -144 -161 0 
143 -161 -163 0 
143 144 -163 0 
144 -145 -160 0 
145 -146 -147 0 
145 -6 -146 0 
145 6 -147 0 
146 -147 0 
146 -30 0 
146 30 -147 0 
147 -148 0 
147 -3 0 
147 3 -148 0 
148 -149 0 
148 -34 0 
148 34 -149 0 
149 -95 -150 0 
149 -46 -95 0 
149 46 -150 0 
150 -95 -151 0 
150 -54 -95 0 
150 54 -151 0 
151 -95 -152 0 
151 -59 -95 0 
151 59 -152 0 
152 63 -153 0 
153 -154 -155 0 
153 -67 -154 0 
153 67 -155 0 
154 -95 0 
154 -70 0 
154 70 -95 0 
155 -95 -156 0 
155 -76 -95 0 
155 76 -156 0 
156 -95 -157 0 
156 -79 -95 0 
156 79 -157 0 
157 82 -158 0 
158 -159 0 
158 -85 -159 0 
158 85 0 
159 -95 0 
159 -87 0 
159 87 -95 0 
160 -142 0 
161 -162 0 
163 162 0 
164 -165 -166 0 
164 -166 -168 0 
164 165 -168 0 
165 -96 0 
165 -140 0 
166 -161 -163 0 
166 -167 -161 0 
166 167 -163 0 
167 -147 -160 0 
168 -169 -173 0 
168 -173 -175 0 
168 169 -175 0 
16 17 0 
169 -99 0 
169 -170 0 
170 171 0 
171 -142 -172 0 
171 142 172 0 
173 -161 -163 0 
173 -174 -161 0 
173 174 -163 0 
174 -95 -160 0 
175 -162 -176 0 
175 162 176 0 
17 -18 -19 0 
17 18 19 0 
1 -140 0 
1 -2 0 
20 -21 -24 0 
20 -24 -26 0 
20 21 -26 0 
21 -22 -23 0 
22 -14 0 
23 -18 0 
24 25 0 
25 -4 0 
26 3 0 
2 -3 -5 0 
2 -5 -90 0 
2 3 -90 0 
27 28 0 
-4 28 0 
4 28 0 
29 30 -32 0 
30 -11 -31 0 
30 -31 -3 0 
30 11 -3 0 
31 21 0 
32 3 -33 0 
33 34 -45 0 
34 -35 -43 0 
3 4 0 
35 -36 -41 0 
36 -37 -39 0 
37 38 0 
39 40 0 
41 42 0 
43 44 0 
45 -46 -50 0 
45 -50 -53 0 
45 46 -53 0 
46 -47 -43 0 
47 -48 -41 0 
48 -49 -39 0 
49 -38 0 
50 51 0 
51 -52 0 
53 -50 -58 0 
53 -54 -50 0 
53 54 -58 0 
54 -55 -43 0 
55 -56 -41 0 
56 -37 -57 0 
57 -40 0 
58 -50 -62 0 
58 -59 -50 0 
58 59 -62 0 
59 -60 -43 0 
60 -61 -41 0 
61 -49 -57 0 
62 -63 0 
62 -66 0 
62 63 -66 0 
63 -64 -43 0 
64 -36 -65 0 
5 -29 -32 0 
5 -6 -29 0 
5 6 -32 0 
65 -42 0 
66 -67 -69 0 
66 -69 -75 0 
66 67 -75 0 
67 -68 -43 0 
68 -48 -65 0 
69 70 -50 0 
70 -71 -73 0 
71 -72 0 
6 -10 0 
6 -7 0 
73 -74 0 
75 -50 -78 0 
75 -76 -50 0 
75 76 -78 0 
76 -77 -43 0 
77 -56 -65 0 
78 -50 -81 0 
78 -79 -50 0 
78 79 -81 0 
79 -80 -43 0 
80 -61 -65 0 
81 -84 0 
81 -82 0 
81 82 -84 0 
82 -35 -83 0 
7 8 0 
83 -44 0 
84 -85 -86 0 
85 -47 -83 0 
86 87 -50 0 
87 -71 0 
87 -88 0 
88 -89 0 
90 -34 -5 0 
90 -5 -91 0 
90 34 -91 0 
91 -46 -92 0 
91 -92 -113 0 
91 46 -113 0 
92 -93 -96 0 
92 -6 -93 0 
92 6 -96 0 
